dates = {'2022-02-01','2022-02-02','2022-02-03','2022-02-04','2022-02-05','2022-02-06','2022-02-07'};

daysOfWeek = [Tuesday,Wednesday,Thursday,Friday,Saturday,Sunday,Monday];

% For this week, how many people will be here.
numPeople = [160,160,155,158,158,158,154];

% Physical workers need 50 to 100 % more nutrients per day.
numPhysicalWorkers = [54.0,54.0,54.0,53.0,53.0,53.0,53.0];

% Males need +25% more nutrients per day.
numMen = [132,132,132,132,132,132,132];

% Num people who do not eat categories. contains = {none, meat, milk, gluten, egg, nut, seed, sugars}
numRefusals = [| 0,10,2,15,8,2,0,6 | 0,10,2,15,8,2,0,6 | 0,12,16,0,0,8,8,8 | 0,3,2,0,4,0,0,0 | 0,3,2,0,4,0,0,0 | 0,3,2,0,4,0,0,0 | 0,0,0,0,0,1,2,0 |];

